CPXPARAM_TimeLimit                               7200
CPXPARAM_Read_DataCheck                          1
CPXPARAM_Output_IntSolFilePrefix                 "solucoes/t_sol_ini_ID007M015J015_ZintTrue_manne_ub1/sol"
Tried aggregator 1 time.
Reduced MIP has 3375 rows, 1801 columns, and 9900 nonzeros.
Reduced MIP has 1575 binaries, 0 generals, 0 SOSs, and 0 indicators.
Presolve time = 0.00 sec. (3.39 ticks)
Found incumbent of value 9126.000000 after 0.01 sec. (23.01 ticks)
Probing time = 0.00 sec. (1.42 ticks)
Tried aggregator 1 time.
Reduced MIP has 3375 rows, 1801 columns, and 9900 nonzeros.
Reduced MIP has 1575 binaries, 0 generals, 0 SOSs, and 0 indicators.
Presolve time = 0.00 sec. (4.31 ticks)
Probing time = 0.00 sec. (1.42 ticks)
MIP emphasis: balance optimality and feasibility.
MIP search method: dynamic search.
Parallel mode: deterministic, using up to 8 threads.
Root relaxation solution time = 0.01 sec. (28.29 ticks)

        Nodes                                         Cuts/
   Node  Left     Objective  IInf  Best Integer    Best Bound    ItCnt     Gap

*     0+    0                         9126.0000      963.0000            89.45%
New incumbent written to file 'solucoes/t_sol_ini_ID007M015J015_ZintTrue_manne_ub1/sol-00001.sol'.
      0     0      963.0000   168     9126.0000      963.0000      756   89.45%
*     0+    0                         8808.0000      963.0000            89.07%
New incumbent written to file 'solucoes/t_sol_ini_ID007M015J015_ZintTrue_manne_ub1/sol-00002.sol'.
      0     0      983.0000   128     8808.0000     Cuts: 223      934   88.84%
      0     0      983.0000   159     8808.0000     Cuts: 174     1196   88.84%
*     0+    0                         1886.0000      983.0000            47.88%
New incumbent written to file 'solucoes/t_sol_ini_ID007M015J015_ZintTrue_manne_ub1/sol-00003.sol'.
      0     0      983.0000   149     1886.0000     Cuts: 141     1388   47.88%
      0     0      983.0107   173     1886.0000     Cuts: 165     1601   47.88%
*     0+    0                         1765.0000      983.0107            44.31%
New incumbent written to file 'solucoes/t_sol_ini_ID007M015J015_ZintTrue_manne_ub1/sol-00004.sol'.
*     0+    0                         1759.0000      983.0107            44.12%
New incumbent written to file 'solucoes/t_sol_ini_ID007M015J015_ZintTrue_manne_ub1/sol-00005.sol'.
*     0+    0                         1720.0000      983.0107            42.85%
New incumbent written to file 'solucoes/t_sol_ini_ID007M015J015_ZintTrue_manne_ub1/sol-00006.sol'.
*     0+    0                         1632.0000      983.0107            39.77%
New incumbent written to file 'solucoes/t_sol_ini_ID007M015J015_ZintTrue_manne_ub1/sol-00007.sol'.
*     0+    0                         1629.0000      996.5448            38.82%
New incumbent written to file 'solucoes/t_sol_ini_ID007M015J015_ZintTrue_manne_ub1/sol-00008.sol'.
*     0+    0                         1595.0000      996.5448            37.52%
New incumbent written to file 'solucoes/t_sol_ini_ID007M015J015_ZintTrue_manne_ub1/sol-00009.sol'.
*     0+    0                         1552.0000      996.5448            35.79%
New incumbent written to file 'solucoes/t_sol_ini_ID007M015J015_ZintTrue_manne_ub1/sol-00010.sol'.
*     0+    0                         1547.0000      996.5448            35.58%
New incumbent written to file 'solucoes/t_sol_ini_ID007M015J015_ZintTrue_manne_ub1/sol-00011.sol'.
      0     2      983.0107   159     1547.0000      996.5448     1601   35.58%
Elapsed time = 0.82 sec. (671.52 ticks, tree = 0.01 MB, solutions = 11)
*    10+    1                         1543.0000      996.5448            35.42%
New incumbent written to file 'solucoes/t_sol_ini_ID007M015J015_ZintTrue_manne_ub1/sol-00012.sol'.
*    10+    6                         1525.0000      996.5448            34.65%
New incumbent written to file 'solucoes/t_sol_ini_ID007M015J015_ZintTrue_manne_ub1/sol-00013.sol'.
*    72+    6                         1524.0000      996.5448            34.61%
New incumbent written to file 'solucoes/t_sol_ini_ID007M015J015_ZintTrue_manne_ub1/sol-00014.sol'.
*    74+   49                         1515.0000      996.5448            34.22%
New incumbent written to file 'solucoes/t_sol_ini_ID007M015J015_ZintTrue_manne_ub1/sol-00015.sol'.
*    76+    1                         1508.0000      996.5448            33.92%
New incumbent written to file 'solucoes/t_sol_ini_ID007M015J015_ZintTrue_manne_ub1/sol-00016.sol'.
*    90+    3                         1500.0000      996.5448            33.56%
New incumbent written to file 'solucoes/t_sol_ini_ID007M015J015_ZintTrue_manne_ub1/sol-00017.sol'.
*    91+    3                         1494.0000      996.5448            33.30%
New incumbent written to file 'solucoes/t_sol_ini_ID007M015J015_ZintTrue_manne_ub1/sol-00018.sol'.
     91    87     1075.0000   117     1494.0000      996.5448     4666   33.30%
*   106+    3                         1487.0000      996.5448            32.98%
New incumbent written to file 'solucoes/t_sol_ini_ID007M015J015_ZintTrue_manne_ub1/sol-00019.sol'.
*   125+    3                         1483.0000      996.5448            32.80%
New incumbent written to file 'solucoes/t_sol_ini_ID007M015J015_ZintTrue_manne_ub1/sol-00020.sol'.
*   142+    3                         1472.0000      996.5448            32.30%
New incumbent written to file 'solucoes/t_sol_ini_ID007M015J015_ZintTrue_manne_ub1/sol-00021.sol'.
*   190+    3                         1465.0000      996.5448            31.98%
New incumbent written to file 'solucoes/t_sol_ini_ID007M015J015_ZintTrue_manne_ub1/sol-00022.sol'.
*   228+    3                         1459.0000      996.5448            31.70%
New incumbent written to file 'solucoes/t_sol_ini_ID007M015J015_ZintTrue_manne_ub1/sol-00023.sol'.
*   354+  263                         1439.0000      996.5448            30.75%
New incumbent written to file 'solucoes/t_sol_ini_ID007M015J015_ZintTrue_manne_ub1/sol-00024.sol'.
*   392+  263                         1437.0000      996.5448            30.65%
New incumbent written to file 'solucoes/t_sol_ini_ID007M015J015_ZintTrue_manne_ub1/sol-00025.sol'.
    392   265     1176.0000    61     1437.0000      996.5448     9360   30.65%
*   697+  579                         1432.0000      996.5448            30.41%
New incumbent written to file 'solucoes/t_sol_ini_ID007M015J015_ZintTrue_manne_ub1/sol-00026.sol'.
    803   625     1133.0000    93     1432.0000      996.5448    20493   30.41%
*   967+  791                         1422.0000      996.5448            29.92%
New incumbent written to file 'solucoes/t_sol_ini_ID007M015J015_ZintTrue_manne_ub1/sol-00027.sol'.
*   977+  791                         1402.0000      996.5448            28.92%
New incumbent written to file 'solucoes/t_sol_ini_ID007M015J015_ZintTrue_manne_ub1/sol-00028.sol'.
*  1066+  999                         1399.0000      996.5448            28.77%
New incumbent written to file 'solucoes/t_sol_ini_ID007M015J015_ZintTrue_manne_ub1/sol-00029.sol'.
   1082  1029     1188.0000    83     1399.0000      996.5448    31858   28.77%
*  1095  1029      integral     0     1394.0000      996.5448    31851   28.51%
New incumbent written to file 'solucoes/t_sol_ini_ID007M015J015_ZintTrue_manne_ub1/sol-00030.sol'.
*  1380+ 1173                         1393.0000      996.5448            28.46%
New incumbent written to file 'solucoes/t_sol_ini_ID007M015J015_ZintTrue_manne_ub1/sol-00031.sol'.
*  1414+ 1173                         1383.0000      996.5448            27.94%
New incumbent written to file 'solucoes/t_sol_ini_ID007M015J015_ZintTrue_manne_ub1/sol-00032.sol'.
*  1431+ 1173                         1378.0000      996.5448            27.68%
New incumbent written to file 'solucoes/t_sol_ini_ID007M015J015_ZintTrue_manne_ub1/sol-00033.sol'.
*  1441+ 1173                         1372.0000      996.5448            27.37%
New incumbent written to file 'solucoes/t_sol_ini_ID007M015J015_ZintTrue_manne_ub1/sol-00034.sol'.
   1452  1253     1276.0000    38     1372.0000      996.5448    38485   27.37%
*  1779+ 1116                         1337.0000     1001.9467            25.06%
New incumbent written to file 'solucoes/t_sol_ini_ID007M015J015_ZintTrue_manne_ub1/sol-00035.sol'.
*  1779+  744                         1331.0000     1019.8889            23.37%
New incumbent written to file 'solucoes/t_sol_ini_ID007M015J015_ZintTrue_manne_ub1/sol-00036.sol'.
*  1779+  496                         1327.0000     1019.8889            23.14%
New incumbent written to file 'solucoes/t_sol_ini_ID007M015J015_ZintTrue_manne_ub1/sol-00037.sol'.
*  1779+  330                         1322.0000     1019.8889            22.85%
New incumbent written to file 'solucoes/t_sol_ini_ID007M015J015_ZintTrue_manne_ub1/sol-00038.sol'.
*  1779+  220                         1319.0000     1019.8889            22.68%
New incumbent written to file 'solucoes/t_sol_ini_ID007M015J015_ZintTrue_manne_ub1/sol-00039.sol'.
*  1779+  146                         1309.0000     1044.8068            20.18%
New incumbent written to file 'solucoes/t_sol_ini_ID007M015J015_ZintTrue_manne_ub1/sol-00040.sol'.
*  1779+   97                         1303.0000     1044.8068            19.82%
New incumbent written to file 'solucoes/t_sol_ini_ID007M015J015_ZintTrue_manne_ub1/sol-00041.sol'.
*  1779+   64                         1297.0000     1044.8068            19.44%
New incumbent written to file 'solucoes/t_sol_ini_ID007M015J015_ZintTrue_manne_ub1/sol-00042.sol'.
   1779    65     1015.6738   113     1297.0000     1044.8068    52202   19.44%
*  1789+   21                         1295.0000     1044.8068            19.32%
New incumbent written to file 'solucoes/t_sol_ini_ID007M015J015_ZintTrue_manne_ub1/sol-00043.sol'.
*  1789+   15                         1290.0000     1044.8068            19.01%
New incumbent written to file 'solucoes/t_sol_ini_ID007M015J015_ZintTrue_manne_ub1/sol-00044.sol'.
*  1789+   11                         1289.0000     1044.8068            18.94%
New incumbent written to file 'solucoes/t_sol_ini_ID007M015J015_ZintTrue_manne_ub1/sol-00045.sol'.
*  1791+    8                         1288.0000     1044.8068            18.88%
New incumbent written to file 'solucoes/t_sol_ini_ID007M015J015_ZintTrue_manne_ub1/sol-00046.sol'.
*  1792+    5                         1286.0000     1044.8068            18.76%
New incumbent written to file 'solucoes/t_sol_ini_ID007M015J015_ZintTrue_manne_ub1/sol-00047.sol'.
   1794    12     1116.0000    87     1286.0000     1044.8068    52848   18.76%
   1920    95     1192.0000    86     1286.0000     1044.8068    57216   18.76%
   2226   319     1183.0000    94     1286.0000     1044.8068    63634   18.76%
*  2582+  524                         1285.0000     1048.2541            18.42%
New incumbent written to file 'solucoes/t_sol_ini_ID007M015J015_ZintTrue_manne_ub1/sol-00048.sol'.
*  2598+  522                         1284.0000     1048.2541            18.36%
New incumbent written to file 'solucoes/t_sol_ini_ID007M015J015_ZintTrue_manne_ub1/sol-00049.sol'.
*  3184+  928                         1282.0000     1059.0000            17.39%
New incumbent written to file 'solucoes/t_sol_ini_ID007M015J015_ZintTrue_manne_ub1/sol-00050.sol'.
   3458  1159     1264.0000    61     1282.0000     1062.0000   100381   17.16%
Elapsed time = 7.72 sec. (6238.87 ticks, tree = 1.17 MB, solutions = 78)
*  4072+ 1544                         1278.0000     1070.0000            16.28%
New incumbent written to file 'solucoes/t_sol_ini_ID007M015J015_ZintTrue_manne_ub1/sol-00051.sol'.
*  4091+ 1544                         1275.0000     1073.0000            15.84%
New incumbent written to file 'solucoes/t_sol_ini_ID007M015J015_ZintTrue_manne_ub1/sol-00052.sol'.
*  4103+ 1544                         1274.0000     1073.0000            15.78%
New incumbent written to file 'solucoes/t_sol_ini_ID007M015J015_ZintTrue_manne_ub1/sol-00053.sol'.
*  4104+ 1544                         1271.0000     1073.0000            15.58%
New incumbent written to file 'solucoes/t_sol_ini_ID007M015J015_ZintTrue_manne_ub1/sol-00054.sol'.
*  4104+ 1631                         1269.0000     1073.0000            15.45%
New incumbent written to file 'solucoes/t_sol_ini_ID007M015J015_ZintTrue_manne_ub1/sol-00055.sol'.
*  4118+ 1631                         1266.0000     1073.0000            15.24%
New incumbent written to file 'solucoes/t_sol_ini_ID007M015J015_ZintTrue_manne_ub1/sol-00056.sol'.
*  4133+ 1544                         1263.0000     1073.0000            15.04%
New incumbent written to file 'solucoes/t_sol_ini_ID007M015J015_ZintTrue_manne_ub1/sol-00057.sol'.
*  4137+ 1627                         1262.0000     1073.0000            14.98%
New incumbent written to file 'solucoes/t_sol_ini_ID007M015J015_ZintTrue_manne_ub1/sol-00058.sol'.
*  4138+ 1627                         1248.0000     1073.0000            14.02%
New incumbent written to file 'solucoes/t_sol_ini_ID007M015J015_ZintTrue_manne_ub1/sol-00059.sol'.
*  4145+ 1627                         1247.0000     1073.0000            13.95%
New incumbent written to file 'solucoes/t_sol_ini_ID007M015J015_ZintTrue_manne_ub1/sol-00060.sol'.
*  4145+ 1627                         1243.0000     1073.0000            13.68%
New incumbent written to file 'solucoes/t_sol_ini_ID007M015J015_ZintTrue_manne_ub1/sol-00061.sol'.
*  4147+ 1591                         1242.0000     1073.0000            13.61%
New incumbent written to file 'solucoes/t_sol_ini_ID007M015J015_ZintTrue_manne_ub1/sol-00062.sol'.
*  4157+ 1591                         1241.0000     1073.0000            13.54%
New incumbent written to file 'solucoes/t_sol_ini_ID007M015J015_ZintTrue_manne_ub1/sol-00063.sol'.
*  4174+ 1627                         1240.0000     1073.0000            13.47%
New incumbent written to file 'solucoes/t_sol_ini_ID007M015J015_ZintTrue_manne_ub1/sol-00064.sol'.
*  4175+ 1627                         1239.0000     1073.0000            13.40%
New incumbent written to file 'solucoes/t_sol_ini_ID007M015J015_ZintTrue_manne_ub1/sol-00065.sol'.
   4241  1383     1132.2803   107     1239.0000     1073.0000   128846   13.40%
*  4411  1475      integral     0     1237.0000     1073.7053   135156   13.20%
New incumbent written to file 'solucoes/t_sol_ini_ID007M015J015_ZintTrue_manne_ub1/sol-00066.sol'.
   4956  1778     1214.0000    77     1237.0000     1077.3093   157864   12.91%
*  5611+ 1861                         1235.0000     1077.4000            12.76%
New incumbent written to file 'solucoes/t_sol_ini_ID007M015J015_ZintTrue_manne_ub1/sol-00067.sol'.
*  5625+ 1848                         1233.0000     1077.4000            12.62%
New incumbent written to file 'solucoes/t_sol_ini_ID007M015J015_ZintTrue_manne_ub1/sol-00068.sol'.
*  5625+ 1848                         1228.0000     1077.4000            12.26%
New incumbent written to file 'solucoes/t_sol_ini_ID007M015J015_ZintTrue_manne_ub1/sol-00069.sol'.
   5625  2129     1143.0000    76     1228.0000     1077.4000   182936   12.26%
*  5626+ 1848                         1227.0000     1077.4000            12.19%
New incumbent written to file 'solucoes/t_sol_ini_ID007M015J015_ZintTrue_manne_ub1/sol-00070.sol'.
*  5626+ 1848                         1226.0000     1077.4000            12.12%
New incumbent written to file 'solucoes/t_sol_ini_ID007M015J015_ZintTrue_manne_ub1/sol-00071.sol'.
*  5626+ 1848                         1225.0000     1077.4000            12.05%
New incumbent written to file 'solucoes/t_sol_ini_ID007M015J015_ZintTrue_manne_ub1/sol-00072.sol'.
*  5656+ 1848                         1223.0000     1077.4000            11.91%
New incumbent written to file 'solucoes/t_sol_ini_ID007M015J015_ZintTrue_manne_ub1/sol-00073.sol'.
   6208  2135     1085.0000   107     1223.0000     1084.0000   205547   11.37%
   7436  2781     1121.0000   102     1223.0000     1086.9318   249303   11.13%
   8671  3523     1209.0000    51     1223.0000     1093.0000   290067   10.63%
*  9784+ 4209                         1222.0000     1100.0000             9.98%
New incumbent written to file 'solucoes/t_sol_ini_ID007M015J015_ZintTrue_manne_ub1/sol-00074.sol'.
*  9789+ 4209                         1221.0000     1100.0000             9.91%
New incumbent written to file 'solucoes/t_sol_ini_ID007M015J015_ZintTrue_manne_ub1/sol-00075.sol'.
*  9875+ 4218                         1221.0000     1100.0000             9.91%
New incumbent written to file 'solucoes/t_sol_ini_ID007M015J015_ZintTrue_manne_ub1/sol-00076.sol'.
   9997  4260     1168.0000   117     1221.0000     1100.0000   334971    9.91%
* 10007+ 4213                         1221.0000     1100.0000             9.91%
New incumbent written to file 'solucoes/t_sol_ini_ID007M015J015_ZintTrue_manne_ub1/sol-00077.sol'.
* 10407+ 4670                         1220.0000     1101.0000             9.75%
New incumbent written to file 'solucoes/t_sol_ini_ID007M015J015_ZintTrue_manne_ub1/sol-00078.sol'.
* 10561+ 4714                         1218.0000     1101.5320             9.56%
New incumbent written to file 'solucoes/t_sol_ini_ID007M015J015_ZintTrue_manne_ub1/sol-00079.sol'.
* 10579+ 4714                         1214.0000     1101.5320             9.26%
New incumbent written to file 'solucoes/t_sol_ini_ID007M015J015_ZintTrue_manne_ub1/sol-00080.sol'.
  11254  4642    infeasible           1214.0000     1103.0000   368038    9.14%
* 12037+ 5425                         1212.0000     1104.0000             8.91%
New incumbent written to file 'solucoes/t_sol_ini_ID007M015J015_ZintTrue_manne_ub1/sol-00081.sol'.
  12286  5353     1194.0000    70     1212.0000     1104.0000   415281    8.91%
* 13434+ 5908                         1210.0000     1105.0000             8.68%
New incumbent written to file 'solucoes/t_sol_ini_ID007M015J015_ZintTrue_manne_ub1/sol-00082.sol'.
  13448  5925     1180.0000    39     1210.0000     1105.0000   468401    8.68%
Elapsed time = 22.66 sec. (15803.41 ticks, tree = 6.86 MB, solutions = 199)
* 14070+ 5834                         1204.0000     1107.0000             8.06%
New incumbent written to file 'solucoes/t_sol_ini_ID007M015J015_ZintTrue_manne_ub1/sol-00083.sol'.
* 14153+ 5860                         1204.0000     1107.0000             8.06%
New incumbent written to file 'solucoes/t_sol_ini_ID007M015J015_ZintTrue_manne_ub1/sol-00084.sol'.
* 14174+ 5834                         1203.0000     1107.0000             7.98%
New incumbent written to file 'solucoes/t_sol_ini_ID007M015J015_ZintTrue_manne_ub1/sol-00085.sol'.
* 14175+ 5860                         1203.0000     1107.0000             7.98%
New incumbent written to file 'solucoes/t_sol_ini_ID007M015J015_ZintTrue_manne_ub1/sol-00086.sol'.
* 14182+ 5860                         1199.0000     1107.0000             7.67%
New incumbent written to file 'solucoes/t_sol_ini_ID007M015J015_ZintTrue_manne_ub1/sol-00087.sol'.
* 14200+ 5834                         1198.0000     1107.0000             7.60%
New incumbent written to file 'solucoes/t_sol_ini_ID007M015J015_ZintTrue_manne_ub1/sol-00088.sol'.
* 14200+ 5840                         1198.0000     1107.0000             7.60%
New incumbent written to file 'solucoes/t_sol_ini_ID007M015J015_ZintTrue_manne_ub1/sol-00089.sol'.
  14970  5392     1164.4326    66     1198.0000     1109.0000   496195    7.43%
  15745  5657     1138.0000    71     1198.0000     1111.0000   550812    7.26%
  17335  6188     1145.0000    75     1198.0000     1112.0000   609861    7.18%
  18439  6249     1155.0000    67     1198.0000     1115.0000   648834    6.93%
  19692  6652    infeasible           1198.0000     1119.0000   703870    6.59%
* 20548+ 6555                         1197.0000     1121.0000             6.35%
New incumbent written to file 'solucoes/t_sol_ini_ID007M015J015_ZintTrue_manne_ub1/sol-00090.sol'.
  21567  6519     1130.5105   102     1197.0000     1122.9318   762065    6.19%
  22460  7011        cutoff           1197.0000     1124.2803   828990    6.08%
* 23868+ 6791                         1194.0000     1129.3333             5.42%
New incumbent written to file 'solucoes/t_sol_ini_ID007M015J015_ZintTrue_manne_ub1/sol-00091.sol'.
* 24868+ 6511                         1193.0000     1131.0000             5.20%
New incumbent written to file 'solucoes/t_sol_ini_ID007M015J015_ZintTrue_manne_ub1/sol-00092.sol'.
  24881  6810     1138.0000    70     1193.0000     1131.0000   899593    5.20%
* 25311  6609      integral     0     1192.0000     1133.0000   926329    4.95%
New incumbent written to file 'solucoes/t_sol_ini_ID007M015J015_ZintTrue_manne_ub1/sol-00093.sol'.
* 25464+ 6525                         1189.0000     1133.0000             4.71%
New incumbent written to file 'solucoes/t_sol_ini_ID007M015J015_ZintTrue_manne_ub1/sol-00094.sol'.
  25731  6090    infeasible           1189.0000     1134.0227   979083    4.62%
  27358  5183     1158.0000    89     1189.0000     1141.0000  1066519    4.04%
Elapsed time = 37.47 sec. (25358.30 ticks, tree = 5.57 MB, solutions = 239)
  29364  4346    infeasible           1189.0000     1149.6364  1137382    3.31%
  30439  4226     1159.0000    36     1189.0000     1154.0000  1211760    2.94%
* 30735+ 4297                         1188.0000     1154.0000             2.86%
New incumbent written to file 'solucoes/t_sol_ini_ID007M015J015_ZintTrue_manne_ub1/sol-00095.sol'.
* 30797+ 4057                         1185.0000     1154.0000             2.62%
New incumbent written to file 'solucoes/t_sol_ini_ID007M015J015_ZintTrue_manne_ub1/sol-00096.sol'.
  33472  2983    infeasible           1185.0000     1160.0000  1288143    2.11%
  33735  2653     1020.4263   123     1185.0000     1164.0000  1310934    1.77%
  33883    70    infeasible           1185.0000     1164.0000  1327762    1.77%
  34104   104     1181.1250    73     1185.0000     1164.0000  1356938    1.77%
  34556   142     1168.0000    56     1185.0000     1164.0000  1405889    1.77%
  35289    96     1143.0000    64     1185.0000     1164.0000  1497698    1.77%
* 35480+   71                         1184.0000     1164.0000             1.69%
New incumbent written to file 'solucoes/t_sol_ini_ID007M015J015_ZintTrue_manne_ub1/sol-00097.sol'.
* 35486    17      integral     0     1183.0000     1164.0000  1516449    1.61%
New incumbent written to file 'solucoes/t_sol_ini_ID007M015J015_ZintTrue_manne_ub1/sol-00098.sol'.
* 35490+   18                         1182.0000     1164.0000             1.52%
New incumbent written to file 'solucoes/t_sol_ini_ID007M015J015_ZintTrue_manne_ub1/sol-00099.sol'.
* 35575+    8                         1181.0000     1168.0000             1.10%
New incumbent written to file 'solucoes/t_sol_ini_ID007M015J015_ZintTrue_manne_ub1/sol-00100.sol'.

Implied bound cuts applied:  25
Flow cuts applied:  41
Mixed integer rounding cuts applied:  212
Lift and project cuts applied:  34
Gomory fractional cuts applied:  29

Root node processing (before b&c):
  Real time             =    0.82 sec. (673.14 ticks)
Parallel b&c, 8 threads:
  Real time             =   50.48 sec. (34827.65 ticks)
  Sync time (average)   =    8.04 sec.
  Wait time (average)   =    0.10 sec.
                          ------------
Total (root+branch&cut) =   51.30 sec. (35500.80 ticks)
